(set-logic QF_S)
(set-option :produce-models true)

(declare-fun s607 () String)
(declare-fun s587 () String)
(declare-fun s617 () String)
(declare-fun s602 () String)
(declare-fun s612 () String)
(declare-fun s565 () String)
(declare-fun s592 () String)
(declare-fun s597 () String)

(assert (= s602 "r" ))
(assert (not (= s565 s612 )))
(assert (not (= s565 s617 )))
(assert (= s617 "q" ))
(assert (= s587 "p" ))
(assert (= s607 "l" ))
(assert (not (= s565 s597 )))
(assert (= s612 "h" ))
(assert (= s597 "g" ))
(assert (not (= s565 s607 )))
(assert (not (= s565 s602 )))
(assert (not (= s565 s587 )))
(assert (not (= s565 s592 )))
(assert (= s592 "k" ))


(check-sat)
(get-model)
